1 33 61
1 39 71
1 1 -219
1 49 88
43 49 89
43 43 -19
43 44 33
33 33 -73
33 49 21
40 40 -23
40 25 66
41 41 -73
41 18 28
41 11 70
41 44 26
41 42 87
42 18 63
42 42 -144
42 39 30
11 11 -12
44 44 -33
44 25 54
49 49 -29
18 18 -59
25 25 -120
39 39 -17
